
  32    1
  10

   0   0   9 2 3 4 5 6 7 9 10 12 
   3   1   6 22 20 18 15 14 11 
   3   3   6 22 20 18 16 15 14 
   8   3   4 20 17 15 8 
   6   4   6 24 22 20 19 18 14 
   9   4   4 20 17 15 13 
   1   5   5 24 22 20 19 14 
   2   6   6 31 30 29 22 21 16 
   3   2   6 31 29 24 22 19 18 
   2   8   4 24 20 19 14 
   8   6   3 30 17 16 
   4   4   3 29 20 16 
   4   7   7 31 30 29 28 24 22 21 
   3   3   6 31 30 29 28 27 21 
   1   4   6 31 29 28 27 26 24 
  10   3   3 27 24 19 
   3   4   5 29 28 27 25 23 
   5   3   3 30 27 21 
   6   6   3 28 25 23 
   4   4   3 30 27 25 
   1   1   2 25 23 
   4   3   2 26 25 
   9   3   1 26 
   9   2   1 25 
  10   5   1 32
   3   3   1 32
   5   5   1 32
  10   7   1 32
   3   5   1 32
   8   3   1 32
   7   3   1 32
   0   0   0 
